12 24
1 2 44
1 3 111
1 10 132
2 3 76
2 5 139
2 7 179
2 10 158
3 5 78
3 7 197
4 6 258
4 7 320
4 8 345
5 7 177
5 8 478
5 9 432
5 11 487
5 12 353
6 7 207
6 10 348
7 10 233
8 12 243
9 11 56
9 12 361
11 12 384
